NAME: eil101
TYPE: TOUR
DIMENSION: 101
TOUR_SECTION
1
50
76
77
68
80
29
24
54
55
25
12
3
79
81
9
71
65
66
35
51
78
34
33
40
21
73
72
74
22
41
75
56
4
23
39
67
26
6
89
59
93
99
5
60
18
52
83
8
46
45
82
7
88
62
10
90
63
32
31
70
30
20
48
19
11
47
36
49
64
84
17
96
37
98
100
85
61
16
86
91
44
38
14
92
97
87
42
2
57
15
43
95
94
13
58
53
101
28
27
69
EOF
